56
100
80	2
79	3
77	1
76	1
75	1
74	2
72	3
71	1
70	1
68	2
67	2
65	1
64	2
63	2
61	2
60	2
59	2
57	1
55	1
54	1
53	2
52	2
51	3
50	1
49	2
48	1
47	2
46	3
44	2
43	1
41	2
40	1
39	2
38	3
37	2
36	1
35	3
34	1
33	2
31	1
30	1
28	2
27	2
26	1
24	4
22	3
21	2
20	2
19	1
17	2
16	3
14	1
13	3
12	1
11	1
10	1
